\ENCODING=ISO-8859-1
\Problem name: IloCplex

Minimize
 obj1: x1 + 24.81201 x2 + 1
Subject To
 c1:  x1 + 5 x2 <= 99999
 c2:  x1 + 3.048 x2 >= 35.7532
 c3:  x1 + 8.048 x2 <= 99999
 c4:  x1 + 7.62 x2 >= 46.073868
 c5:  x1 + 12.62 x2 <= 99999
 c6:  x1 + 8.00715 x2 >= 46.099678
 c7:  x1 + 13.00715 x2 <= 99999
 c8:  x1 + 11.80486 x2 >= 46.3528586666667
 c9:  x1 + 16.80486 x2 <= 99999
 c10: x1 + 12.19201 x2 >= 46.3786686666667
 c11: x1 + 17.19201 x2 <= 99999
 c12: x1 + 16.76401 x2 >= 46.6834686666667
 c13: x1 + 21.76401 x2 <= 99999
 c14: x1 + 19.81201 x2 >= 46.8866686666667
 c15: x1 + 24.81201 x2 <= 99999
Bounds
 35.55 <= x1 <= 100000
 0.0666666666666667 <= x2 <= 0.333333333333333
End
